NAME : mr68
COMMENT : 68-city problem (DISC)
TYPE : TSP
DIMENSION : 68
EDGE_WEIGHT_TYPE : EUC_2D
NODE_COORD_SECTION
1 26 9
2 5 91
3 59 73
4 12 79
5 62 17
6 30 87
7 81 15
8 10 37
9 71 100
10 94 13
11 85 55
12 80 69
13 98 63
14 54 42
15 51 2
16 96 38
17 78 65
18 60 6
19 17 87
20 19 40
21 4 61
22 23 3
23 53 58
24 70 23
25 29 52
26 10 57
27 99 52
28 78 51
29 55 46
30 16 55
31 76 58
32 53 4
33 81 20
34 72 27
35 2 65
36 52 98
37 68 72
38 69 70
39 49 48
40 100 64
41 36 11
42 37 81
43 14 99
44 34 13
45 18 89
46 85 11
47 61 3
48 46 12
49 71 25
50 100 86
51 64 2
52 2 13
53 14 30
54 65 54
55 1 12
56 8 79
57 57 21
58 67 45
59 85 83
60 26 46
61 74 61
62 100 27
63 3 56
64 100 75
65 11 53
66 80 23
67 8 55
68 29 43
EOF
